nN = 8;
nR = 48;
nH = 2;

a = [[16, 15, 15, 23, 20, 16, 21, 17, 25, 21, 18, 19, 15, 25, 15, 16, 20, 20, 17, 25, 23, 25, 22, 21, 22, 19, 23, 22, 20, 18, 16, 22, 25, 25, 16, 16, 17, 21, 18, 21, 25, 18, 23, 18, 17, 18, 16, 23], [21, 24, 19, 25, 18, 16, 22, 20, 20, 23, 18, 21, 17, 17, 20, 24, 17, 22, 17, 25, 16, 16, 17, 16, 17, 16, 24, 23, 23, 20, 20, 19, 20, 16, 15, 24, 16, 18, 18, 20, 15, 22, 24, 20, 18, 25, 15, 23], [20, 17, 20, 25, 18, 15, 19, 20, 21, 21, 20, 25, 21, 19, 19, 23, 25, 20, 18, 18, 21, 25, 20, 22, 24, 20, 22, 15, 19, 24, 25, 25, 16, 20, 22, 17, 19, 22, 20, 18, 22, 21, 20, 20, 16, 16, 25, 23], [16, 19, 23, 19, 16, 23, 25, 15, 22, 22, 18, 22, 20, 20, 19, 17, 20, 16, 25, 15, 24, 15, 23, 18, 21, 19, 15, 23, 17, 15, 25, 23, 16, 19, 21, 18, 25, 22, 21, 16, 20, 19, 19, 21, 21, 17, 24, 20], [24, 24, 15, 23, 19, 22, 23, 17, 19, 21, 22, 21, 15, 15, 15, 24, 24, 18, 16, 15, 21, 19, 21, 21, 16, 24, 17, 23, 22, 17, 24, 21, 19, 19, 23, 23, 15, 18, 19, 21, 17, 18, 18, 17, 24, 21, 17, 19], [23, 21, 22, 22, 15, 19, 23, 24, 16, 17, 24, 21, 21, 15, 20, 20, 20, 25, 23, 22, 18, 15, 16, 23, 16, 20, 23, 24, 20, 18, 17, 21, 20, 24, 20, 16, 23, 15, 18, 17, 18, 17, 22, 23, 25, 21, 18, 25], [24, 21, 22, 17, 15, 21, 23, 20, 20, 21, 22, 19, 24, 24, 22, 24, 20, 17, 16, 16, 18, 15, 21, 16, 15, 18, 21, 19, 19, 20, 23, 25, 20, 23, 24, 21, 16, 25, 20, 20, 19, 16, 22, 19, 22, 18, 18, 23], [22, 20, 17, 22, 25, 24, 23, 17, 16, 16, 15, 21, 24, 24, 18, 22, 20, 23, 22, 21, 18, 17, 16, 16, 22, 22, 21, 19, 20, 18, 24, 23, 24, 19, 21, 15, 22, 23, 19, 21, 21, 21, 22, 24, 19, 19, 24, 15]];
c = [[[0, 0, 0, 0, 0, 0, 0, 0, 0, 0, 0, 0, 0, 0, 0, 0, 0, 0, 0, 0, 0, 0, 0, 0, 0, 0, 0, 0, 0, 0, 0, 0, 0, 0, 0, 0, 0, 0, 0, 0, 0, 0, 0, 0, 0, 0, 0, 0], [39, 35, 45, 44, 42, 30, 42, 44, 34, 43, 50, 39, 49, 48, 49, 48, 44, 35, 42, 50, 37, 30, 41, 39, 30, 45, 48, 47, 33, 42, 41, 39, 39, 32, 34, 47, 48, 42, 41, 50, 48, 30, 40, 35, 43, 32, 47, 46], [37, 40, 45, 45, 37, 37, 47, 42, 42, 37, 46, 42, 48, 44, 46, 41, 37, 37, 46, 41, 49, 37, 43, 49, 41, 36, 37, 43, 32, 50, 35, 47, 44, 44, 44, 47, 41, 30, 50, 39, 42, 43, 47, 30, 39, 46, 30, 46], [45, 42, 33, 35, 42, 43, 30, 45, 34, 43, 43, 38, 49, 32, 45, 30, 35, 42, 37, 44, 47, 32, 38, 37, 39, 46, 39, 48, 30, 50, 38, 39, 41, 40, 43, 46, 39, 37, 50, 36, 41, 41, 37, 49, 39, 38, 40, 30], [41, 33, 41, 40, 42, 37, 47, 33, 47, 42, 45, 50, 39, 31, 35, 36, 39, 30, 37, 48, 32, 40, 37, 36, 40, 48, 46, 40, 39, 39, 50, 47, 35, 40, 32, 39, 43, 44, 47, 38, 30, 39, 30, 31, 34, 38, 41, 32], [32, 48, 34, 32, 40, 49, 40, 38, 44, 37, 31, 43, 30, 49, 30, 48, 34, 44, 40, 41, 37, 36, 30, 49, 33, 38, 44, 44, 36, 33, 42, 40, 35, 42, 45, 31, 34, 43, 38, 39, 35, 42, 39, 43, 34, 44, 30, 34], [34, 46, 32, 31, 34, 41, 50, 35, 48, 38, 30, 34, 37, 37, 30, 30, 37, 45, 34, 40, 46, 48, 34, 32, 38, 49, 37, 39, 35, 39, 36, 47, 49, 46, 38, 42, 48, 35, 50, 40, 32, 41, 45, 33, 37, 43, 49, 44], [32, 30, 31, 42, 31, 36, 36, 50, 47, 44, 50, 45, 42, 33, 42, 42, 31, 30, 45, 37, 44, 34, 36, 36, 49, 43, 42, 39, 30, 40, 37, 44, 50, 43, 47, 41, 31, 38, 38, 33, 50, 35, 36, 31, 49, 34, 42, 30]], [[0, 0, 0, 0, 0, 0, 0, 0, 0, 0, 0, 0, 0, 0, 0, 0, 0, 0, 0, 0, 0, 0, 0, 0, 0, 0, 0, 0, 0, 0, 0, 0, 0, 0, 0, 0, 0, 0, 0, 0, 0, 0, 0, 0, 0, 0, 0, 0], [0, 0, 0, 0, 0, 0, 0, 0, 0, 0, 0, 0, 0, 0, 0, 0, 0, 0, 0, 0, 0, 0, 0, 0, 0, 0, 0, 0, 0, 0, 0, 0, 0, 0, 0, 0, 0, 0, 0, 0, 0, 0, 0, 0, 0, 0, 0, 0], [47, 40, 31, 45, 37, 41, 46, 42, 30, 37, 50, 47, 49, 33, 34, 36, 46, 37, 31, 47, 36, 50, 40, 36, 48, 42, 37, 31, 49, 49, 50, 46, 46, 40, 34, 44, 38, 49, 33, 34, 44, 45, 46, 48, 41, 32, 31, 48], [36, 36, 45, 45, 33, 42, 30, 32, 33, 45, 46, 33, 43, 44, 35, 40, 50, 42, 45, 42, 37, 40, 43, 48, 30, 30, 33, 35, 48, 36, 36, 36, 44, 43, 37, 48, 31, 36, 50, 42, 42, 39, 33, 40, 50, 32, 32, 36], [46, 44, 38, 32, 44, 44, 34, 42, 48, 33, 36, 31, 48, 41, 40, 36, 30, 45, 35, 42, 31, 33, 33, 36, 36, 45, 30, 38, 41, 45, 47, 35, 37, 50, 45, 32, 33, 46, 50, 39, 34, 49, 47, 31, 43, 42, 35, 33], [33, 36, 40, 37, 36, 39, 46, 44, 36, 40, 38, 30, 34, 30, 35, 36, 43, 33, 30, 47, 43, 32, 37, 40, 40, 33, 40, 43, 35, 44, 42, 36, 34, 49, 48, 33, 38, 37, 45, 30, 37, 40, 46, 48, 46, 38, 37, 47], [43, 42, 39, 32, 40, 48, 30, 39, 38, 35, 48, 32, 41, 37, 40, 39, 48, 39, 42, 32, 40, 30, 47, 33, 36, 42, 45, 50, 37, 38, 44, 41, 37, 30, 37, 30, 39, 44, 40, 37, 30, 35, 50, 43, 38, 49, 33, 31], [34, 43, 42, 47, 38, 34, 40, 31, 46, 38, 42, 31, 45, 40, 39, 45, 45, 43, 33, 41, 33, 39, 33, 47, 31, 37, 43, 49, 46, 46, 38, 32, 33, 49, 45, 35, 43, 40, 48, 31, 46, 30, 35, 40, 38, 33, 44, 48]], [[0, 0, 0, 0, 0, 0, 0, 0, 0, 0, 0, 0, 0, 0, 0, 0, 0, 0, 0, 0, 0, 0, 0, 0, 0, 0, 0, 0, 0, 0, 0, 0, 0, 0, 0, 0, 0, 0, 0, 0, 0, 0, 0, 0, 0, 0, 0, 0], [0, 0, 0, 0, 0, 0, 0, 0, 0, 0, 0, 0, 0, 0, 0, 0, 0, 0, 0, 0, 0, 0, 0, 0, 0, 0, 0, 0, 0, 0, 0, 0, 0, 0, 0, 0, 0, 0, 0, 0, 0, 0, 0, 0, 0, 0, 0, 0], [0, 0, 0, 0, 0, 0, 0, 0, 0, 0, 0, 0, 0, 0, 0, 0, 0, 0, 0, 0, 0, 0, 0, 0, 0, 0, 0, 0, 0, 0, 0, 0, 0, 0, 0, 0, 0, 0, 0, 0, 0, 0, 0, 0, 0, 0, 0, 0], [46, 33, 38, 39, 49, 47, 31, 36, 35, 33, 44, 36, 32, 40, 32, 48, 30, 34, 34, 44, 45, 32, 35, 50, 44, 44, 31, 42, 40, 46, 46, 45, 45, 50, 33, 40, 32, 35, 39, 35, 36, 44, 40, 46, 41, 32, 44, 49], [50, 37, 34, 43, 32, 49, 49, 39, 33, 41, 37, 37, 36, 37, 42, 35, 50, 50, 40, 47, 48, 47, 33, 36, 42, 34, 46, 31, 40, 33, 37, 34, 46, 41, 49, 31, 30, 47, 32, 30, 47, 49, 49, 38, 41, 46, 37, 43], [44, 41, 49, 37, 35, 40, 50, 38, 34, 36, 49, 39, 44, 33, 38, 43, 30, 43, 39, 31, 34, 38, 37, 47, 37, 46, 31, 42, 50, 33, 36, 38, 32, 33, 46, 38, 47, 38, 43, 50, 44, 48, 32, 43, 41, 49, 45, 47], [33, 35, 38, 49, 47, 34, 30, 31, 31, 34, 33, 48, 41, 41, 44, 40, 46, 34, 41, 44, 49, 42, 35, 30, 47, 33, 41, 41, 50, 40, 49, 49, 34, 36, 42, 50, 32, 48, 50, 44, 32, 48, 32, 44, 44, 47, 30, 37], [34, 42, 38, 45, 50, 30, 30, 47, 39, 46, 48, 47, 49, 40, 38, 38, 43, 36, 37, 41, 38, 31, 35, 37, 41, 30, 40, 32, 38, 47, 49, 41, 47, 50, 37, 37, 43, 48, 46, 47, 45, 32, 49, 39, 50, 35, 44, 30]], [[0, 0, 0, 0, 0, 0, 0, 0, 0, 0, 0, 0, 0, 0, 0, 0, 0, 0, 0, 0, 0, 0, 0, 0, 0, 0, 0, 0, 0, 0, 0, 0, 0, 0, 0, 0, 0, 0, 0, 0, 0, 0, 0, 0, 0, 0, 0, 0], [0, 0, 0, 0, 0, 0, 0, 0, 0, 0, 0, 0, 0, 0, 0, 0, 0, 0, 0, 0, 0, 0, 0, 0, 0, 0, 0, 0, 0, 0, 0, 0, 0, 0, 0, 0, 0, 0, 0, 0, 0, 0, 0, 0, 0, 0, 0, 0], [0, 0, 0, 0, 0, 0, 0, 0, 0, 0, 0, 0, 0, 0, 0, 0, 0, 0, 0, 0, 0, 0, 0, 0, 0, 0, 0, 0, 0, 0, 0, 0, 0, 0, 0, 0, 0, 0, 0, 0, 0, 0, 0, 0, 0, 0, 0, 0], [0, 0, 0, 0, 0, 0, 0, 0, 0, 0, 0, 0, 0, 0, 0, 0, 0, 0, 0, 0, 0, 0, 0, 0, 0, 0, 0, 0, 0, 0, 0, 0, 0, 0, 0, 0, 0, 0, 0, 0, 0, 0, 0, 0, 0, 0, 0, 0], [40, 44, 49, 36, 37, 48, 37, 34, 35, 35, 39, 38, 41, 42, 40, 41, 31, 45, 31, 45, 46, 37, 34, 35, 45, 43, 38, 38, 35, 32, 31, 42, 49, 33, 49, 41, 36, 40, 47, 48, 30, 44, 50, 44, 36, 48, 48, 40], [34, 47, 36, 43, 33, 39, 42, 37, 38, 33, 41, 35, 42, 38, 34, 32, 31, 34, 49, 50, 30, 41, 38, 34, 50, 35, 44, 42, 45, 37, 41, 50, 46, 49, 34, 37, 30, 50, 41, 30, 36, 33, 42, 33, 50, 42, 38, 32], [45, 32, 50, 36, 36, 34, 42, 50, 45, 37, 41, 40, 36, 47, 41, 49, 47, 43, 42, 36, 32, 44, 38, 40, 36, 41, 41, 34, 44, 49, 47, 42, 36, 48, 46, 50, 40, 35, 45, 46, 47, 46, 30, 32, 42, 37, 43, 49], [42, 30, 38, 32, 35, 43, 45, 44, 32, 32, 32, 39, 40, 34, 41, 39, 47, 38, 34, 40, 39, 47, 31, 31, 47, 30, 49, 43, 43, 44, 32, 48, 32, 38, 34, 31, 33, 47, 41, 40, 47, 45, 33, 47, 45, 30, 34, 41]], [[0, 0, 0, 0, 0, 0, 0, 0, 0, 0, 0, 0, 0, 0, 0, 0, 0, 0, 0, 0, 0, 0, 0, 0, 0, 0, 0, 0, 0, 0, 0, 0, 0, 0, 0, 0, 0, 0, 0, 0, 0, 0, 0, 0, 0, 0, 0, 0], [0, 0, 0, 0, 0, 0, 0, 0, 0, 0, 0, 0, 0, 0, 0, 0, 0, 0, 0, 0, 0, 0, 0, 0, 0, 0, 0, 0, 0, 0, 0, 0, 0, 0, 0, 0, 0, 0, 0, 0, 0, 0, 0, 0, 0, 0, 0, 0], [0, 0, 0, 0, 0, 0, 0, 0, 0, 0, 0, 0, 0, 0, 0, 0, 0, 0, 0, 0, 0, 0, 0, 0, 0, 0, 0, 0, 0, 0, 0, 0, 0, 0, 0, 0, 0, 0, 0, 0, 0, 0, 0, 0, 0, 0, 0, 0], [0, 0, 0, 0, 0, 0, 0, 0, 0, 0, 0, 0, 0, 0, 0, 0, 0, 0, 0, 0, 0, 0, 0, 0, 0, 0, 0, 0, 0, 0, 0, 0, 0, 0, 0, 0, 0, 0, 0, 0, 0, 0, 0, 0, 0, 0, 0, 0], [0, 0, 0, 0, 0, 0, 0, 0, 0, 0, 0, 0, 0, 0, 0, 0, 0, 0, 0, 0, 0, 0, 0, 0, 0, 0, 0, 0, 0, 0, 0, 0, 0, 0, 0, 0, 0, 0, 0, 0, 0, 0, 0, 0, 0, 0, 0, 0], [36, 46, 46, 33, 33, 36, 33, 35, 39, 35, 43, 31, 44, 34, 34, 39, 32, 50, 44, 39, 30, 44, 47, 30, 48, 31, 41, 32, 32, 43, 43, 47, 42, 46, 32, 34, 41, 42, 41, 37, 33, 35, 47, 39, 47, 34, 50, 41], [47, 50, 35, 34, 40, 41, 35, 32, 47, 45, 42, 50, 46, 44, 36, 47, 49, 40, 36, 43, 31, 31, 42, 33, 45, 30, 49, 42, 39, 46, 35, 41, 40, 35, 37, 40, 44, 47, 50, 37, 48, 44, 40, 47, 37, 31, 36, 33], [46, 50, 37, 31, 36, 42, 45, 46, 46, 30, 36, 38, 41, 45, 31, 32, 45, 46, 47, 38, 41, 49, 31, 32, 33, 45, 36, 41, 39, 50, 38, 49, 50, 43, 46, 39, 40, 46, 35, 33, 39, 44, 36, 49, 32, 41, 44, 31]], [[0, 0, 0, 0, 0, 0, 0, 0, 0, 0, 0, 0, 0, 0, 0, 0, 0, 0, 0, 0, 0, 0, 0, 0, 0, 0, 0, 0, 0, 0, 0, 0, 0, 0, 0, 0, 0, 0, 0, 0, 0, 0, 0, 0, 0, 0, 0, 0], [0, 0, 0, 0, 0, 0, 0, 0, 0, 0, 0, 0, 0, 0, 0, 0, 0, 0, 0, 0, 0, 0, 0, 0, 0, 0, 0, 0, 0, 0, 0, 0, 0, 0, 0, 0, 0, 0, 0, 0, 0, 0, 0, 0, 0, 0, 0, 0], [0, 0, 0, 0, 0, 0, 0, 0, 0, 0, 0, 0, 0, 0, 0, 0, 0, 0, 0, 0, 0, 0, 0, 0, 0, 0, 0, 0, 0, 0, 0, 0, 0, 0, 0, 0, 0, 0, 0, 0, 0, 0, 0, 0, 0, 0, 0, 0], [0, 0, 0, 0, 0, 0, 0, 0, 0, 0, 0, 0, 0, 0, 0, 0, 0, 0, 0, 0, 0, 0, 0, 0, 0, 0, 0, 0, 0, 0, 0, 0, 0, 0, 0, 0, 0, 0, 0, 0, 0, 0, 0, 0, 0, 0, 0, 0], [0, 0, 0, 0, 0, 0, 0, 0, 0, 0, 0, 0, 0, 0, 0, 0, 0, 0, 0, 0, 0, 0, 0, 0, 0, 0, 0, 0, 0, 0, 0, 0, 0, 0, 0, 0, 0, 0, 0, 0, 0, 0, 0, 0, 0, 0, 0, 0], [0, 0, 0, 0, 0, 0, 0, 0, 0, 0, 0, 0, 0, 0, 0, 0, 0, 0, 0, 0, 0, 0, 0, 0, 0, 0, 0, 0, 0, 0, 0, 0, 0, 0, 0, 0, 0, 0, 0, 0, 0, 0, 0, 0, 0, 0, 0, 0], [50, 47, 36, 40, 45, 36, 39, 39, 32, 47, 47, 34, 45, 36, 47, 45, 31, 39, 30, 38, 34, 45, 33, 41, 35, 37, 44, 48, 32, 34, 37, 35, 36, 31, 40, 32, 31, 48, 37, 36, 35, 46, 50, 50, 47, 44, 43, 30], [39, 41, 43, 31, 34, 37, 33, 48, 44, 45, 44, 49, 34, 38, 43, 45, 47, 30, 38, 34, 36, 30, 45, 33, 45, 49, 31, 32, 40, 37, 37, 46, 30, 38, 38, 31, 35, 43, 35, 43, 32, 40, 40, 50, 42, 47, 37, 45]], [[0, 0, 0, 0, 0, 0, 0, 0, 0, 0, 0, 0, 0, 0, 0, 0, 0, 0, 0, 0, 0, 0, 0, 0, 0, 0, 0, 0, 0, 0, 0, 0, 0, 0, 0, 0, 0, 0, 0, 0, 0, 0, 0, 0, 0, 0, 0, 0], [0, 0, 0, 0, 0, 0, 0, 0, 0, 0, 0, 0, 0, 0, 0, 0, 0, 0, 0, 0, 0, 0, 0, 0, 0, 0, 0, 0, 0, 0, 0, 0, 0, 0, 0, 0, 0, 0, 0, 0, 0, 0, 0, 0, 0, 0, 0, 0], [0, 0, 0, 0, 0, 0, 0, 0, 0, 0, 0, 0, 0, 0, 0, 0, 0, 0, 0, 0, 0, 0, 0, 0, 0, 0, 0, 0, 0, 0, 0, 0, 0, 0, 0, 0, 0, 0, 0, 0, 0, 0, 0, 0, 0, 0, 0, 0], [0, 0, 0, 0, 0, 0, 0, 0, 0, 0, 0, 0, 0, 0, 0, 0, 0, 0, 0, 0, 0, 0, 0, 0, 0, 0, 0, 0, 0, 0, 0, 0, 0, 0, 0, 0, 0, 0, 0, 0, 0, 0, 0, 0, 0, 0, 0, 0], [0, 0, 0, 0, 0, 0, 0, 0, 0, 0, 0, 0, 0, 0, 0, 0, 0, 0, 0, 0, 0, 0, 0, 0, 0, 0, 0, 0, 0, 0, 0, 0, 0, 0, 0, 0, 0, 0, 0, 0, 0, 0, 0, 0, 0, 0, 0, 0], [0, 0, 0, 0, 0, 0, 0, 0, 0, 0, 0, 0, 0, 0, 0, 0, 0, 0, 0, 0, 0, 0, 0, 0, 0, 0, 0, 0, 0, 0, 0, 0, 0, 0, 0, 0, 0, 0, 0, 0, 0, 0, 0, 0, 0, 0, 0, 0], [0, 0, 0, 0, 0, 0, 0, 0, 0, 0, 0, 0, 0, 0, 0, 0, 0, 0, 0, 0, 0, 0, 0, 0, 0, 0, 0, 0, 0, 0, 0, 0, 0, 0, 0, 0, 0, 0, 0, 0, 0, 0, 0, 0, 0, 0, 0, 0], [46, 47, 48, 33, 35, 41, 35, 31, 42, 38, 39, 30, 32, 40, 48, 42, 41, 38, 50, 49, 32, 32, 36, 50, 33, 34, 31, 47, 37, 33, 34, 31, 48, 35, 39, 47, 32, 35, 44, 31, 40, 40, 45, 38, 39, 47, 47, 36]], [[0, 0, 0, 0, 0, 0, 0, 0, 0, 0, 0, 0, 0, 0, 0, 0, 0, 0, 0, 0, 0, 0, 0, 0, 0, 0, 0, 0, 0, 0, 0, 0, 0, 0, 0, 0, 0, 0, 0, 0, 0, 0, 0, 0, 0, 0, 0, 0], [0, 0, 0, 0, 0, 0, 0, 0, 0, 0, 0, 0, 0, 0, 0, 0, 0, 0, 0, 0, 0, 0, 0, 0, 0, 0, 0, 0, 0, 0, 0, 0, 0, 0, 0, 0, 0, 0, 0, 0, 0, 0, 0, 0, 0, 0, 0, 0], [0, 0, 0, 0, 0, 0, 0, 0, 0, 0, 0, 0, 0, 0, 0, 0, 0, 0, 0, 0, 0, 0, 0, 0, 0, 0, 0, 0, 0, 0, 0, 0, 0, 0, 0, 0, 0, 0, 0, 0, 0, 0, 0, 0, 0, 0, 0, 0], [0, 0, 0, 0, 0, 0, 0, 0, 0, 0, 0, 0, 0, 0, 0, 0, 0, 0, 0, 0, 0, 0, 0, 0, 0, 0, 0, 0, 0, 0, 0, 0, 0, 0, 0, 0, 0, 0, 0, 0, 0, 0, 0, 0, 0, 0, 0, 0], [0, 0, 0, 0, 0, 0, 0, 0, 0, 0, 0, 0, 0, 0, 0, 0, 0, 0, 0, 0, 0, 0, 0, 0, 0, 0, 0, 0, 0, 0, 0, 0, 0, 0, 0, 0, 0, 0, 0, 0, 0, 0, 0, 0, 0, 0, 0, 0], [0, 0, 0, 0, 0, 0, 0, 0, 0, 0, 0, 0, 0, 0, 0, 0, 0, 0, 0, 0, 0, 0, 0, 0, 0, 0, 0, 0, 0, 0, 0, 0, 0, 0, 0, 0, 0, 0, 0, 0, 0, 0, 0, 0, 0, 0, 0, 0], [0, 0, 0, 0, 0, 0, 0, 0, 0, 0, 0, 0, 0, 0, 0, 0, 0, 0, 0, 0, 0, 0, 0, 0, 0, 0, 0, 0, 0, 0, 0, 0, 0, 0, 0, 0, 0, 0, 0, 0, 0, 0, 0, 0, 0, 0, 0, 0], [0, 0, 0, 0, 0, 0, 0, 0, 0, 0, 0, 0, 0, 0, 0, 0, 0, 0, 0, 0, 0, 0, 0, 0, 0, 0, 0, 0, 0, 0, 0, 0, 0, 0, 0, 0, 0, 0, 0, 0, 0, 0, 0, 0, 0, 0, 0, 0]]];

q = [[[11, 112], [13, 107], [9, 120], [7, 106], [16, 105], [10, 107], [5, 114], [16, 111], [16, 106], [12, 120], [15, 125], [7, 110], [8, 107], [7, 123], [10, 119], [7, 119], [10, 108], [5, 105], [11, 116], [16, 120], [7, 116], [16, 117], [9, 112], [12, 114], [13, 122], [14, 120], [14, 124], [8, 111], [15, 108], [8, 117], [15, 121], [15, 125], [13, 123], [8, 107], [8, 112], [8, 125], [15, 111], [8, 109], [6, 117], [10, 125], [10, 110], [5, 122], [16, 120], [8, 108], [16, 105], [5, 112], [14, 111], [11, 108]], [[6, 117], [7, 110], [15, 123], [6, 119], [16, 122], [14, 114], [6, 125], [15, 116], [10, 117], [8, 105], [11, 123], [9, 106], [13, 114], [11, 113], [10, 116], [10, 108], [13, 122], [14, 105], [16, 115], [7, 109], [9, 117], [8, 117], [16, 120], [13, 119], [7, 125], [14, 107], [6, 111], [13, 120], [9, 112], [7, 121], [15, 114], [16, 119], [5, 111], [14, 120], [10, 120], [10, 107], [5, 124], [15, 111], [14, 110], [11, 108], [16, 124], [7, 108], [13, 107], [16, 109], [7, 115], [15, 105], [11, 122], [11, 110]], [[14, 110], [7, 114], [13, 108], [8, 105], [9, 124], [7, 118], [11, 106], [13, 121], [14, 122], [14, 115], [5, 105], [12, 119], [9, 105], [6, 118], [12, 106], [11, 107], [11, 122], [9, 123], [11, 125], [13, 105], [8, 114], [9, 110], [15, 106], [7, 105], [15, 108], [16, 109], [10, 113], [16, 111], [14, 109], [13, 122], [6, 112], [13, 121], [5, 113], [5, 123], [8, 120], [16, 113], [13, 117], [6, 114], [12, 120], [8, 111], [10, 119], [5, 125], [16, 123], [14, 108], [6, 105], [14, 116], [12, 106], [11, 114]], [[9, 118], [16, 112], [14, 112], [11, 114], [16, 112], [9, 116], [7, 105], [15, 125], [14, 119], [13, 110], [7, 106], [10, 115], [7, 118], [15, 125], [7, 109], [13, 120], [14, 107], [11, 109], [10, 120], [15, 117], [10, 111], [15, 121], [13, 121], [13, 109], [16, 106], [14, 108], [11, 111], [11, 121], [9, 106], [14, 120], [15, 107], [12, 124], [16, 107], [15, 113], [13, 116], [12, 108], [14, 124], [5, 111], [6, 117], [14, 116], [12, 117], [11, 112], [9, 113], [7, 116], [14, 121], [11, 106], [16, 123], [11, 120]], [[7, 120], [6, 118], [6, 118], [11, 117], [10, 106], [9, 115], [9, 108], [16, 123], [9, 119], [14, 116], [7, 117], [10, 120], [10, 118], [7, 113], [8, 124], [12, 122], [15, 117], [9, 115], [9, 114], [14, 122], [12, 120], [13, 106], [12, 110], [16, 109], [7, 116], [8, 117], [6, 111], [15, 120], [6, 123], [16, 121], [8, 120], [14, 123], [6, 108], [6, 110], [14, 120], [16, 124], [8, 118], [6, 107], [10, 121], [7, 111], [12, 120], [15, 118], [7, 108], [15, 124], [12, 124], [14, 116], [10, 107], [9, 111]], [[12, 115], [8, 114], [8, 105], [11, 106], [6, 106], [11, 120], [9, 123], [11, 107], [12, 109], [12, 109], [13, 118], [5, 121], [14, 122], [14, 125], [16, 112], [5, 115], [14, 113], [9, 125], [9, 124], [10, 113], [9, 115], [11, 114], [13, 107], [11, 119], [14, 110], [13, 117], [7, 110], [6, 118], [14, 114], [6, 117], [11, 125], [10, 122], [12, 116], [6, 107], [6, 105], [11, 115], [6, 107], [6, 123], [13, 123], [11, 122], [11, 115], [10, 117], [10, 121], [12, 109], [13, 125], [10, 105], [10, 120], [14, 117]], [[15, 122], [15, 118], [10, 111], [12, 110], [11, 119], [14, 113], [7, 123], [10, 113], [5, 117], [13, 116], [12, 111], [10, 116], [13, 116], [15, 125], [6, 113], [8, 116], [7, 123], [15, 122], [15, 107], [8, 124], [5, 111], [6, 106], [10, 125], [7, 123], [5, 105], [11, 107], [7, 106], [12, 112], [15, 115], [12, 110], [14, 116], [11, 116], [11, 106], [9, 112], [14, 120], [10, 112], [14, 119], [10, 112], [5, 112], [13, 123], [14, 111], [6, 124], [7, 114], [16, 106], [10, 123], [7, 121], [7, 125], [11, 116]], [[11, 117], [8, 107], [6, 113], [9, 113], [11, 113], [9, 122], [12, 121], [14, 107], [12, 109], [12, 110], [10, 121], [10, 122], [6, 119], [5, 117], [10, 117], [14, 123], [5, 109], [7, 120], [9, 117], [16, 117], [10, 105], [16, 117], [5, 118], [7, 114], [8, 112], [13, 125], [16, 121], [9, 112], [8, 110], [5, 117], [13, 118], [10, 109], [5, 111], [6, 115], [10, 107], [6, 117], [7, 112], [9, 117], [13, 111], [7, 118], [8, 112], [13, 110], [10, 117], [6, 115], [10, 113], [8, 111], [13, 107], [10, 118]]];
Q = [[51, 550], [53, 552], [51, 547], [57, 550], [49, 559], [49, 554], [50, 555], [45, 551]];
